50
1000
699
683
659
617
586
584
577
573
559
546
527
525
512
505
504
503
503
500
492
492
488
486
482
480
472
466
440
428
387
378
374
373
357
356
350
349
340
324
323
323
310
295
272
266
255
249
228
225
212
201
